letting n =  10
letting blocks =  [[1, 6], [2, 4], [2, 7], [2, 10], [3, 4], [3, 8], [3, 10], [4, 6], [4, 8], [4, 9], [5, 5], [5, 6], [6, 8], [6, 9], [6, 10], [7, 4], [7, 9], [8, 2], [8, 3], [8, 4], [8, 9], [8, 10], [9, 3], [9, 10]]
